20J7M/DAT/20J7MNNL-11.dat
20 7
29.3266 29.3266
21.0868 21.0868
29.472 29.472
20.0825 20.0825
22.9067 22.9067
20.8147 20.8147
24.8846 24.8846
28.061 28.061
22.3211 22.3211
19.6442 19.6442
20.7312 20.7312
16.0139 16.0139
28.5769 28.5769
22.5278 22.5278
32.2251 32.2251
27.7006 27.7006
21.4899 21.4899
19.0523 19.0523
26.9324 26.9324
26.508 26.508
480.3583