20J7M/SOL/20J7MNNL-11.sol
solution status: optimal solution found
objective value:                              73.2401
x#1#7                                               1 	(obj:0)
x#2#3                                               1 	(obj:0)
x#3#4                                               1 	(obj:0)
x#4#5                                               1 	(obj:0)
x#5#5                                               1 	(obj:0)
x#6#6                                               1 	(obj:0)
x#7#1                                               1 	(obj:0)
x#8#1                               0.463226268590285 	(obj:0)
x#8#4                               0.536773731409715 	(obj:0)
x#9#6                                               1 	(obj:0)
x#10#3                                              1 	(obj:0)
x#11#2                              0.430722294861128 	(obj:0)
x#11#5                              0.569277705138872 	(obj:0)
x#12#1                                              1 	(obj:0)
x#13#2                                              1 	(obj:0)
x#14#4                                              1 	(obj:0)
x#15#4                                              1 	(obj:0)
x#16#7                                              1 	(obj:0)
x#17#3                              0.298235176251175 	(obj:0)
x#17#6                              0.577977465743924 	(obj:0)
x#17#7                              0.123787358004902 	(obj:0)
x#18#2                                              1 	(obj:0)
x#19#5                                              1 	(obj:0)
x#20#1                              0.313692814073132 	(obj:0)
x#20#2                              0.363265475466062 	(obj:0)
x#20#3                              0.323041710460808 	(obj:0)
z                                             73.2401 	(obj:1)
